28 28
22
3 3 16 25
3 4 19 24
3 5 9 23
3 6 16 10
3 7 22 21
3 8 19 16
3 9 16 16
3 10 16 0
3 11 25 0
3 16 19 0
3 17 25 11
3 21 22 0
3 23 13 0
4 3 0 13
4 4 0 24
4 5 12 23
4 8 0 16
4 13 0 0
4 23 9 0
5 6 4 13
5 9 4 19
5 13 4 0
